Geographic Exponential Decay
20 78 54 146 183 51 33 303 200 219 296 17 3 284 94 203 213 27 305 279 32
p edge 320 634
e 0 204 1.0
e 1 28 12.0
e 2 278 10.0
e 2 63 10.0
e 2 115 7.0
e 3 69 69.0
e 3 73 94.0
e 3 182 9.0
e 3 53 10.0
e 3 251 27.0
e 3 209 87.0
e 3 268 21.0
e 3 296 25.0
e 3 54 38.0
e 3 100 56.0
e 3 117 39.0
e 3 252 46.0
e 3 242 77.0
e 3 164 8.0
e 3 49 39.0
e 3 272 89.0
e 3 83 6.0
e 4 203 14.0
e 5 184 10.0
e 5 265 5.0
e 6 298 5.0
e 6 246 6.0
e 7 234 4.0
e 7 61 3.0
e 8 170 1.0
e 9 183 67.0
e 9 194 8.0
e 9 123 24.0
e 9 20 8.0
e 9 279 75.0
e 10 11 2.0
e 12 86 5.0
e 12 64 7.0
e 13 155 1.0
e 13 166 6.0
e 14 249 1.0
e 15 246 1.0
e 16 86 2.0
e 16 296 75.0
e 16 117 3.0
e 17 192 30.0
e 17 14 33.0
e 17 152 28.0
e 17 227 66.0
e 17 316 43.0
e 17 219 48.0
e 17 193 2.0
e 17 52 39.0
e 17 96 64.0
e 17 49 17.0
e 17 22 76.0
e 17 50 90.0
e 17 257 1.0
e 17 303 87.0
e 17 80 83.0
e 17 18 52.0
e 17 253 28.0
e 18 84 1.0
e 19 290 4.0
e 21 49 1.0
e 22 308 5.0
e 23 194 4.0
e 23 47 1.0
e 24 301 15.0
e 24 143 19.0
e 24 163 15.0
e 24 219 38.0
e 24 139 5.0
e 25 299 3.0
e 26 181 6.0
e 27 208 54.0
e 27 228 11.0
e 27 158 11.0
e 27 189 4.0
e 27 93 44.0
e 27 142 40.0
e 27 192 13.0
e 27 41 90.0
e 27 147 49.0
e 27 180 75.0
e 27 73 99.0
e 27 20 64.0
e 27 111 100.0
e 27 259 19.0
e 27 274 75.0
e 27 159 100.0
e 27 160 79.0
e 28 128 1.0
e 28 14 8.0
e 28 274 6.0
e 28 132 16.0
e 29 17 81.0
e 29 218 22.0
e 29 254 5.0
e 29 229 20.0
e 29 283 27.0
e 30 237 1.0
e 31 113 3.0
e 31 192 4.0
e 32 313 8.0
e 32 233 32.0
e 32 110 11.0
e 32 259 23.0
e 32 136 29.0
e 32 234 38.0
e 32 292 21.0
e 32 26 7.0
e 32 77 78.0
e 32 200 68.0
e 32 264 77.0
e 32 270 28.0
e 32 261 15.0
e 32 165 4.0
e 32 107 95.0
e 32 291 12.0
e 32 112 35.0
e 33 50 60.0
e 33 247 74.0
e 33 4 80.0
e 33 32 95.0
e 33 140 30.0
e 33 186 7.0
e 33 99 8.0
e 33 275 5.0
e 33 55 58.0
e 33 104 38.0
e 33 46 89.0
e 33 127 89.0
e 33 150 93.0
e 33 294 32.0
e 33 210 84.0
e 33 276 75.0
e 33 220 19.0
e 34 314 5.0
e 34 48 9.0
e 34 229 8.0
e 35 168 11.0
e 35 123 2.0
e 36 304 5.0
e 36 279 19.0
e 37 123 2.0
e 37 53 1.0
e 38 182 4.0
e 38 290 1.0
e 39 120 1.0
e 39 23 9.0
e 39 88 3.0
e 40 264 3.0
e 41 75 1.0
e 42 99 9.0
e 42 233 5.0
e 42 199 6.0
e 43 109 4.0
e 43 134 4.0
e 44 102 31.0
e 45 3 75.0
e 45 129 8.0
e 45 311 11.0
e 46 88 14.0
e 46 63 1.0
e 46 80 19.0
e 46 189 2.0
e 51 107 48.0
e 51 45 7.0
e 51 206 55.0
e 51 307 27.0
e 51 124 59.0
e 51 148 59.0
e 51 234 35.0
e 51 167 54.0
e 51 274 34.0
e 51 311 9.0
e 51 229 85.0
e 51 271 47.0
e 51 15 49.0
e 51 48 92.0
e 51 13 97.0
e 51 305 4.0
e 51 78 3.0
e 52 40 5.0
e 52 271 2.0
e 54 35 34.0
e 54 259 6.0
e 54 181 23.0
e 54 99 75.0
e 54 110 11.0
e 54 258 79.0
e 54 206 50.0
e 54 151 23.0
e 54 195 26.0
e 54 196 34.0
e 54 128 17.0
e 54 263 94.0
e 54 164 27.0
e 54 58 33.0
e 54 173 39.0
e 54 116 63.0
e 55 170 4.0
e 56 168 9.0
e 57 35 1.0
e 57 26 5.0
e 57 177 11.0
e 59 171 11.0
e 60 241 4.0
e 60 109 3.0
e 62 267 2.0
e 64 240 3.0
e 64 119 3.0
e 65 102 27.0
e 65 56 3.0
e 65 253 1.0
e 66 269 1.0
e 67 258 2.0
e 67 168 12.0
e 68 211 2.0
e 68 39 3.0
e 68 294 3.0
e 70 315 4.0
e 70 159 5.0
e 71 266 2.0
e 72 45 10.0
e 74 197 2.0
e 76 309 3.0
e 78 158 37.0
e 78 177 94.0
e 78 237 15.0
e 78 157 68.0
e 78 106 62.0
e 78 66 75.0
e 78 159 44.0
e 78 279 13.0
e 78 160 21.0
e 78 285 33.0
e 78 175 3.0
e 78 167 32.0
e 78 212 8.0
e 78 141 24.0
e 78 132 96.0
e 78 240 46.0
e 79 281 5.0
e 79 183 47.0
e 81 275 2.0
e 82 291 5.0
e 82 78 12.0
e 85 31 6.0
e 85 119 10.0
e 85 316 6.0
e 87 4 4.0
e 87 110 4.0
e 89 18 5.0
e 90 240 2.0
e 91 165 5.0
e 92 163 3.0
e 93 251 3.0
e 94 261 85.0
e 94 84 46.0
e 94 275 69.0
e 94 315 62.0
e 94 215 55.0
e 94 252 16.0
e 94 85 48.0
e 94 264 27.0
e 94 241 95.0
e 94 243 64.0
e 94 143 46.0
e 94 118 22.0
e 94 133 82.0
e 94 72 73.0
e 94 240 79.0
e 94 207 3.0
e 94 138 68.0
e 95 151 3.0
e 96 88 1.0
e 97 4 1.0
e 97 18 10.0
e 97 139 7.0
e 98 317 2.0
e 101 284 71.0
e 102 233 23.0
e 102 33 44.0
e 102 137 30.0
e 102 73 15.0
e 102 25 28.0
e 102 82 3.0
e 102 134 30.0
e 103 254 6.0
e 103 130 11.0
e 103 263 11.0
e 105 172 4.0
e 108 186 3.0
e 108 114 4.0
e 111 283 32.0
e 111 153 3.0
e 111 237 23.0
e 111 184 24.0
e 112 208 2.0
e 112 41 10.0
e 114 176 1.0
e 116 172 2.0
e 119 226 1.0
e 120 188 1.0
e 120 224 10.0
e 121 0 4.0
e 121 74 1.0
e 122 10 1.0
e 124 70 1.0
e 125 189 4.0
e 125 307 2.0
e 125 256 2.0
e 126 307 1.0
e 127 301 1.0
e 130 230 2.0
e 131 281 5.0
e 131 274 17.0
e 132 92 1.0
e 135 130 1.0
e 136 228 8.0
e 136 137 11.0
e 138 66 1.0
e 140 67 1.0
e 144 229 3.0
e 145 21 5.0
e 145 160 10.0
e 145 291 1.0
e 146 299 32.0
e 146 82 20.0
e 146 291 80.0
e 146 29 39.0
e 146 286 74.0
e 146 317 45.0
e 146 64 65.0
e 146 2 46.0
e 146 298 17.0
e 146 37 60.0
e 146 158 34.0
e 146 135 59.0
e 146 150 15.0
e 146 86 31.0
e 146 40 77.0
e 146 89 85.0
e 146 214 38.0
e 147 287 10.0
e 149 298 1.0
e 150 219 71.0
e 150 308 10.0
e 150 235 4.0
e 153 258 2.0
e 154 19 2.0
e 155 273 3.0
e 156 141 1.0
e 156 273 3.0
e 161 27 81.0
e 161 230 48.0
e 161 86 3.0
e 161 186 44.0
e 161 195 2.0
e 161 253 17.0
e 161 165 38.0
e 161 183 62.0
e 161 31 5.0
e 162 270 1.0
e 166 288 8.0
e 166 230 9.0
e 168 238 17.0
e 168 179 9.0
e 169 207 3.0
e 169 184 1.0
e 171 239 25.0
e 171 198 6.0
e 171 274 29.0
e 171 185 15.0
e 174 315 2.0
e 175 80 10.0
e 175 237 10.0
e 177 129 8.0
e 178 24 2.0
e 183 87 92.0
e 183 12 60.0
e 183 110 43.0
e 183 258 30.0
e 183 239 18.0
e 183 144 37.0
e 183 5 100.0
e 183 99 15.0
e 183 268 2.0
e 183 244 33.0
e 183 38 48.0
e 183 190 26.0
e 183 121 55.0
e 183 107 30.0
e 185 137 10.0
e 185 57 6.0
e 187 257 3.0
e 188 66 3.0
e 190 105 1.0
e 190 50 5.0
e 191 166 11.0
e 195 138 6.0
e 196 58 3.0
e 197 145 6.0
e 198 265 1.0
e 200 267 66.0
e 200 129 70.0
e 200 87 8.0
e 200 271 72.0
e 200 254 74.0
e 200 125 1.0
e 200 113 83.0
e 200 219 71.0
e 200 318 55.0
e 200 217 47.0
e 200 63 98.0
e 200 186 93.0
e 200 273 9.0
e 200 38 69.0
e 200 115 72.0
e 200 127 55.0
e 201 232 4.0
e 201 190 1.0
e 202 203 90.0
e 202 295 3.0
e 203 253 92.0
e 203 62 85.0
e 203 200 20.0
e 203 210 48.0
e 203 190 27.0
e 203 164 4.0
e 203 74 64.0
e 203 300 23.0
e 203 215 91.0
e 203 76 3.0
e 203 234 89.0
e 203 259 99.0
e 203 78 40.0
e 203 179 14.0
e 203 241 82.0
e 205 129 2.0
e 210 241 9.0
e 211 100 8.0
e 211 274 27.0
e 212 245 1.0
e 213 134 26.0
e 213 58 94.0
e 213 19 94.0
e 213 283 5.0
e 213 243 45.0
e 213 233 21.0
e 213 82 4.0
e 213 25 9.0
e 213 76 67.0
e 213 244 2.0
e 213 170 13.0
e 213 152 58.0
e 213 114 78.0
e 213 187 87.0
e 213 245 55.0
e 213 220 100.0
e 213 109 68.0
e 214 88 4.0
e 214 115 4.0
e 216 310 12.0
e 216 6 3.0
e 216 87 10.0
e 217 111 18.0
e 217 80 3.0
e 218 76 6.0
e 218 3 12.0
e 219 75 9.0
e 219 189 84.0
e 219 218 8.0
e 219 253 77.0
e 219 15 87.0
e 219 100 44.0
e 219 293 79.0
e 219 135 12.0
e 219 270 94.0
e 219 187 63.0
e 219 68 53.0
e 219 220 74.0
e 219 188 93.0
e 221 137 4.0
e 221 93 4.0
e 222 302 5.0
e 223 56 1.0
e 224 253 6.0
e 224 41 1.0
e 225 57 8.0
e 225 154 4.0
e 231 12 3.0
e 235 230 2.0
e 236 254 1.0
e 248 55 1.0
e 250 193 1.0
e 252 23 6.0
e 255 36 16.0
e 255 286 12.0
e 255 281 3.0
e 255 228 18.0
e 255 75 10.0
e 260 271 3.0
e 260 255 18.0
e 260 176 5.0
e 262 284 6.0
e 266 30 4.0
e 272 212 34.0
e 272 220 29.0
e 272 164 3.0
e 272 267 16.0
e 272 201 34.0
e 272 280 37.0
e 272 290 41.0
e 272 262 20.0
e 274 138 2.0
e 274 74 10.0
e 274 30 16.0
e 277 89 1.0
e 278 14 2.0
e 278 181 6.0
e 279 294 91.0
e 279 157 17.0
e 279 255 78.0
e 279 72 86.0
e 279 109 78.0
e 279 173 44.0
e 279 221 41.0
e 279 5 42.0
e 279 37 69.0
e 279 81 63.0
e 279 33 65.0
e 279 90 33.0
e 279 112 18.0
e 279 149 98.0
e 280 168 6.0
e 282 215 5.0
e 282 45 4.0
e 282 158 23.0
e 282 67 17.0
e 282 199 9.0
e 283 190 1.0
e 283 120 17.0
e 283 299 39.0
e 283 187 41.0
e 283 23 33.0
e 283 216 25.0
e 284 275 17.0
e 284 91 44.0
e 284 64 31.0
e 284 269 9.0
e 284 55 41.0
e 284 211 36.0
e 284 120 95.0
e 284 231 42.0
e 284 283 38.0
e 284 31 7.0
e 284 306 68.0
e 284 270 75.0
e 284 264 15.0
e 284 194 48.0
e 284 251 59.0
e 287 210 1.0
e 287 22 1.0
e 289 174 1.0
e 292 171 15.0
e 292 245 10.0
e 296 112 27.0
e 296 19 3.0
e 296 0 85.0
e 296 160 26.0
e 296 100 40.0
e 296 206 91.0
e 296 86 4.0
e 296 83 12.0
e 296 84 76.0
e 296 26 27.0
e 296 257 57.0
e 296 248 71.0
e 296 104 87.0
e 296 141 64.0
e 296 20 16.0
e 297 125 12.0
e 300 138 3.0
e 300 94 100.0
e 302 291 3.0
e 303 260 79.0
e 303 308 70.0
e 303 297 77.0
e 303 7 98.0
e 303 315 42.0
e 303 125 74.0
e 303 6 73.0
e 303 209 89.0
e 303 116 82.0
e 303 108 81.0
e 303 111 4.0
e 303 9 87.0
e 303 201 24.0
e 303 89 26.0
e 303 73 12.0
e 303 21 24.0
e 304 248 1.0
e 305 130 3.0
e 305 142 23.0
e 305 92 52.0
e 305 181 34.0
e 305 208 70.0
e 305 184 69.0
e 305 50 91.0
e 305 107 100.0
e 305 272 98.0
e 305 52 68.0
e 305 255 83.0
e 305 289 65.0
e 305 178 90.0
e 305 219 2.0
e 305 217 48.0
e 305 53 38.0
e 306 10 5.0
e 309 81 4.0
e 309 185 7.0
e 310 22 1.0
e 312 282 6.0
e 312 15 6.0
e 312 168 7.0
e 316 292 6.0
e 318 203 35.0
e 318 231 4.0
e 318 48 5.0
e 318 67 3.0
e 319 17 69.0
